# Objective value = 293
x0,1_4 0
x0,1_9 1
x0,1_11 0
x0,1_15 0
x0,1_22 0
x0,1_26 0
x0,1_35 0
x0,1_48 0
x0,1_57 0
x0,1_58 0
x0,1_73 0
x0,1_77 0
x0,1_82 0
x0,1_86 0
x0,2_4 0
x0,2_9 0
x0,2_11 0
x0,2_15 0
x0,2_22 0
x0,2_26 0
x0,2_35 0
x0,2_48 0
x0,2_57 0
x0,2_58 0
x0,2_73 0
x0,2_77 0
x0,2_82 0
x0,2_86 0
x0,3_4 0
x0,3_9 0
x0,3_11 0
x0,3_15 0
x0,3_22 0
x0,3_26 0
x0,3_35 1
x0,3_48 0
x0,3_57 0
x0,3_58 0
x0,3_73 0
x0,3_77 0
x0,3_82 0
x0,3_86 0
x0,4_4 0
x0,4_9 0
x0,4_11 0
x0,4_15 0
x0,4_22 0
x0,4_26 0
x0,4_35 0
x0,4_48 0
x0,4_57 1
x0,4_58 0
x0,4_73 0
x0,4_77 0
x0,4_82 0
x0,4_86 0
x0,5_4 0
x0,5_9 0
x0,5_11 0
x0,5_15 0
x0,5_22 0
x0,5_26 0
x0,5_35 0
x0,5_48 0
x0,5_57 0
x0,5_58 0
x0,5_73 0
x0,5_77 0
x0,5_82 1
x0,5_86 0
x0,6_4 0
x0,6_9 0
x0,6_11 0
x0,6_15 0
x0,6_22 0
x0,6_26 0
x0,6_35 0
x0,6_48 0
x0,6_57 0
x0,6_58 0
x0,6_73 0
x0,6_77 0
x0,6_82 0
x0,6_86 1
x1,2_4 0
x1,2_9 0
x1,2_11 0
x1,2_15 1
x1,2_22 0
x1,2_26 0
x1,2_35 0
x1,2_48 0
x1,2_57 0
x1,2_58 0
x1,2_73 0
x1,2_77 0
x1,2_82 0
x1,2_86 0
x1,3_4 0
x1,3_9 0
x1,3_11 0
x1,3_15 0
x1,3_22 0
x1,3_26 1
x1,3_35 0
x1,3_48 0
x1,3_57 0
x1,3_58 0
x1,3_73 0
x1,3_77 0
x1,3_82 0
x1,3_86 0
x1,4_4 0
x1,4_9 0
x1,4_11 0
x1,4_15 0
x1,4_22 0
x1,4_26 0
x1,4_35 0
x1,4_48 1
x1,4_57 0
x1,4_58 0
x1,4_73 0
x1,4_77 0
x1,4_82 0
x1,4_86 0
x1,5_4 0
x1,5_9 0
x1,5_11 0
x1,5_15 0
x1,5_22 0
x1,5_26 0
x1,5_35 0
x1,5_48 0
x1,5_57 0
x1,5_58 0
x1,5_73 1
x1,5_77 0
x1,5_82 0
x1,5_86 0
x1,6_4 0
x1,6_9 0
x1,6_11 0
x1,6_15 0
x1,6_22 0
x1,6_26 0
x1,6_35 0
x1,6_48 0
x1,6_57 0
x1,6_58 0
x1,6_73 0
x1,6_77 1
x1,6_82 0
x1,6_86 0
x2,3_4 0
x2,3_9 0
x2,3_11 1
x2,3_15 0
x2,3_22 0
x2,3_26 0
x2,3_35 0
x2,3_48 0
x2,3_57 0
x2,3_58 0
x2,3_73 0
x2,3_77 0
x2,3_82 0
x2,3_86 0
x2,4_4 0
x2,4_9 0
x2,4_11 0
x2,4_15 0
x2,4_22 0
x2,4_26 0
x2,4_35 0
x2,4_48 0
x2,4_57 0
x2,4_58 0
x2,4_73 0
x2,4_77 0
x2,4_82 0
x2,4_86 0
x2,5_4 0
x2,5_9 0
x2,5_11 0
x2,5_15 0
x2,5_22 0
x2,5_26 0
x2,5_35 0
x2,5_48 0
x2,5_57 0
x2,5_58 1
x2,5_73 0
x2,5_77 0
x2,5_82 0
x2,5_86 0
x2,6_4 0
x2,6_9 0
x2,6_11 0
x2,6_15 0
x2,6_22 0
x2,6_26 0
x2,6_35 0
x2,6_48 0
x2,6_57 0
x2,6_58 0
x2,6_73 0
x2,6_77 0
x2,6_82 0
x2,6_86 0
x3,4_4 0
x3,4_9 0
x3,4_11 0
x3,4_15 0
x3,4_22 1
x3,4_26 0
x3,4_35 0
x3,4_48 0
x3,4_57 0
x3,4_58 0
x3,4_73 0
x3,4_77 0
x3,4_82 0
x3,4_86 0
x3,5_4 0
x3,5_9 0
x3,5_11 0
x3,5_15 0
x3,5_22 0
x3,5_26 0
x3,5_35 0
x3,5_48 0
x3,5_57 0
x3,5_58 0
x3,5_73 0
x3,5_77 0
x3,5_82 0
x3,5_86 0
x3,6_4 0
x3,6_9 0
x3,6_11 0
x3,6_15 0
x3,6_22 0
x3,6_26 0
x3,6_35 0
x3,6_48 0
x3,6_57 0
x3,6_58 0
x3,6_73 0
x3,6_77 0
x3,6_82 0
x3,6_86 0
x4,5_4 0
x4,5_9 0
x4,5_11 0
x4,5_15 0
x4,5_22 0
x4,5_26 0
x4,5_35 0
x4,5_48 0
x4,5_57 0
x4,5_58 0
x4,5_73 0
x4,5_77 0
x4,5_82 0
x4,5_86 0
x4,6_4 0
x4,6_9 0
x4,6_11 0
x4,6_15 0
x4,6_22 0
x4,6_26 0
x4,6_35 0
x4,6_48 0
x4,6_57 0
x4,6_58 0
x4,6_73 0
x4,6_77 0
x4,6_82 0
x4,6_86 0
x5,6_4 1
x5,6_9 0
x5,6_11 0
x5,6_15 0
x5,6_22 0
x5,6_26 0
x5,6_35 0
x5,6_48 0
x5,6_57 0
x5,6_58 0
x5,6_73 0
x5,6_77 0
x5,6_82 0
x5,6_86 0
p0 0
p1 9
p2 24
p3 35
p4 57
p5 82
p6 86
